27
29
27
20
22
25
23
27
26
21
21
23
20
20
23
23
23
28
21
25
32
34
37
35
32
33
33
31
39
31
38
36
32
37
33
34
39
34
34
34
32
35
31
36
31
32
37
38
30
38
30
37
37
36
30
31
34
32
39
38
39
39
38
36
35
39
32
37
38
36
39
33
37
36
38
30
33
37
38
34
38
32
33
30
37
31
34
36
38
35
36
34
34
35
33
33
36
32
34
34
